;; depth = 14
;; With depth > 14, z3 doesn't terminate for me. With depth 14 it's of course unsat
(declare-const a sl.list.loc)
(declare-const b sl.list.loc)
(declare-const c sl.list.loc)
(declare-const d sl.list.loc)
(declare-const e sl.list.loc)
(declare-const f sl.list.loc)
(declare-const g sl.list.loc)
(declare-const h sl.list.loc)
(declare-const i sl.list.loc)
(declare-const j sl.list.loc)
(declare-const k sl.list.loc)
(declare-const l sl.list.loc)
(declare-const m sl.list.loc)
(declare-const n sl.list.loc)
(declare-const o sl.list.loc)
(declare-const p sl.list.loc)
(assert (sl.sepcon
         (sl.sepcon
          (sl.sepcon (sl.sepcon (sl.list.pointsto a b)
                                (sl.list.pointsto b c))
                     (sl.sepcon (sl.list.pointsto c d)
                                (sl.list.pointsto d e)))
          (sl.sepcon (sl.sepcon (sl.list.pointsto e f)
                                (sl.list.pointsto f g))
                     (sl.sepcon (sl.list.pointsto g h)
                                (sl.list.pointsto h i))))

         (sl.sepcon
          (sl.sepcon (sl.sepcon (sl.list.pointsto i j)
                                (sl.list.pointsto j k))
                     (sl.sepcon (sl.list.pointsto k l)
                                (sl.list.pointsto l m)))
          (sl.sepcon (sl.sepcon (sl.list.pointsto m n)
                                (sl.list.pointsto n o))
                     (sl.sepcon (sl.list.pointsto o p)
                                (sl.list.pointsto p sl.list.null))))))
(assert (sl.list a))
